50

100 11 300
99 13 299
98 24 296
97 27 297
94 18 284
93 16 290
91 10 275
89 24 274
89 12 289
89 22 297
85 25 298
85 26 265
84 9 258
83 20 264
81 10 292
81 9 250
78 10 284
73 5 238
73 9 295
73 21 278
73 6 299
70 12 251
69 2 269
68 18 246
64 5 267
64 9 264
63 13 246
59 8 294
54 6 267
49 5 208
48 2 232
45 4 233
45 7 167
43 8 133
42 5 147
41 1 131
39 6 293
37 9 226
37 9 299
36 8 206
32 6 277
30 6 170
26 2 279
26 7 228
25 3 153
24 4 147
24 2 102
23 7 133
21 2 161
21 2 297
